results/res_prop_muc/res_Cimatti_mathsat_cores/QF_IDL/SortingNetwork4_safe_bgmc002.smt.smt2.res
unsat
( c425
  c470
  c480
  c5
  c6 )
